moodle_data/TSPLIB instances/square36.tsp
36 cities placed on a square
DIMENSION: 36
   1       1.0     1.0
   2       1.0     2.0
   3       1.0     3.0
   4       1.0     4.0
   5       1.0     5.0
   6       1.0     6.0
   7       2.0     1.0
   8       2.0     2.0
   9       2.0     3.0
  10       2.0     4.0
  11       2.0     5.0
  12       2.0     6.0
  13       3.0     1.0
  14       3.0     2.0
  15       3.0     3.0
  16       3.0     4.0
  17       3.0     5.0
  18       3.0     6.0
  19       4.0     1.0
  20       4.0     2.0
  21       4.0     3.0
  22       4.0     4.0
  23       4.0     5.0
  24       4.0     6.0
  25       5.0     1.0
  26       5.0     2.0
  27       5.0     3.0
  28       5.0     4.0
  29       5.0     5.0
  30       5.0     6.0
  31       6.0     1.0
  32       6.0     2.0
  33       6.0     3.0
  34       6.0     4.0
  35       6.0     5.0
  36       6.0     6.0