square36.opt.tour
NAME: square36.opt.tour 
TYPE: TOUR 
DIMENSION: 36 
TOUR_SECTION 
20 
25 
12 
18 
31 
30 
24 
13 
15 
3 
0 
6 
21 
29 
34 
35 
17 
22 
7 
10 
33 
32 
23 
16 
5 
11 
4 
2 
8 
9 
1 
14 
19 
28 
27 
26 
